\* Problem: Unknown *\

Maximize
 obj: + xp_0_0 + xp_0_1 + xp_0_2 + xp_0_3 + xp_0_4 + xp_0_5 + xp_0_6
 + xp_0_7 + xp_1_0 + xp_1_1 + xp_1_2 + xp_2_0 + xp_2_1 + xp_2_2 + xp_2_3
 + xp_2_4 + xp_3_0 + xp_3_1 + xp_3_2 + xp_3_3 + xp_3_4 + xp_4_0 + xp_5_0
 + xp_5_1 + xp_5_2 + xp_6_0 + xp_6_1 + xp_6_2 + xp_6_3 + xp_6_4 + xp_7_0
 + xp_7_1 + xp_8_0 + xp_8_1 + xp_9_0 + xp_10_0 + xp_10_1 + xp_11_0
 + xp_11_1 + xp_11_2 + xp_11_3 + xp_12_0 + xp_13_0 + xp_13_1 + xp_14_0
 + xp_14_1 + xp_15_0 + xp_16_0 + xp_16_1 + xp_17_0 + xp_17_1 + xp_17_2
 + xp_17_3 + xp_17_4 + xp_17_5 + xp_17_6 + xp_17_7 + xp_17_8 + xp_18_0
 + xp_18_1 + xp_18_2 + xp_18_3 + xp_18_4 + xp_18_5 + xp_19_0 + xp_19_1
 + xp_19_2 + xp_19_3 + xp_19_4 + xp_19_5 + xp_20_0 + xp_20_1 + xp_20_2
 + xp_20_3 + xp_21_0 + xp_21_1 + xp_21_2 + xp_21_3 + xp_21_4 + xp_21_5
 + xp_22_0 + xp_22_1 + xp_22_2 + xp_22_3 + xp_22_4 + xp_22_5 + xp_22_6
 + xp_23_0 + xp_23_1 + xp_23_2 + xp_23_3 + xp_23_4 + xp_23_5 + xp_23_6

Subject To
 r_1: 0 xp_0_0 <= 29.0077821011673
 r_2: + xp_22_3 + xp_18_3 + xp_18_2 + xp_17_6 + xp_5_2 + xp_2_3
 <= 27.9004491017964
 r_3: + xp_23_2 + xp_21_1 + xp_18_5 + xp_18_4 + xp_17_8 + xp_6_1 <= 30
 r_4: + xp_17_1 + xp_15_0 + xp_3_4 <= 30
 r_5: + xp_18_0 <= 26.9175824175824
 r_6: + xp_18_1 <= 29.4574468085106
 r_7: + xp_20_3 <= 29.0077821011673
 r_8: + xp_23_5 + xp_22_6 + xp_11_2 + xp_5_1 + xp_3_3 + xp_3_2 + xp_2_2
 <= 27.9004491017964
 r_9: + xp_23_4 + xp_11_1 + xp_6_2 + xp_3_1 <= 29.4574468085106
 r_10: + xp_3_0 <= 29.4574468085106
 r_11: + xp_18_5 + xp_18_1 + xp_11_3 <= 26.9175824175824
 r_12: + xp_11_0 + xp_3_4 <= 29.4574468085106
 r_13: 0 xp_0_0 <= 29.4574468085106
 r_14: + xp_21_5 + xp_19_3 + xp_14_0 + xp_0_4 + xp_0_1
 <= 27.9004491017964
 r_15: + xp_21_0 + xp_19_4 <= 29.0077821011673
 r_16: + xp_22_1 + xp_21_4 + xp_19_5 + xp_0_7 + xp_0_5 + xp_0_3 + xp_0_2
 <= 29.0077821011673
 r_17: + xp_0_0 <= 26.9175824175824
 r_18: + xp_21_1 + xp_4_0 <= 29.0077821011673
 r_19: + xp_19_0 <= 29.0077821011673
 r_20: + xp_21_3 + xp_21_2 + xp_19_2 + xp_19_1 + xp_14_1 + xp_0_6
 <= 29.0077821011673
 r_21: + xp_20_1 <= 27.9004491017964
 r_22: + xp_21_5 + xp_21_3 + xp_7_1 <= 27.9004491017964
 r_23: + xp_22_6 + xp_22_3 + xp_22_2 + xp_17_3 + xp_3_2
 <= 27.9004491017964
 r_24: + xp_23_5 + xp_23_3 + xp_18_3 + xp_17_6 + xp_17_5 + xp_3_3
 + xp_0_4 <= 28.4612068965517
 r_25: 0 xp_0_0 <= 27.9004491017964
 r_26: + xp_18_2 + xp_0_6 + xp_0_1 <= 26.9175824175824
 r_27: + xp_11_2 <= 27.9004491017964
 r_28: + xp_19_3 + xp_19_2 + xp_10_1 <= 27.9004491017964
 r_29: + xp_20_2 <= 29.0077821011673
 r_30: + xp_2_0 <= 27.9004491017964
 r_31: + xp_23_4 + xp_23_2 + xp_18_4 + xp_17_8 + xp_6_2 + xp_6_1
 + xp_3_1 + xp_2_4 <= 28.4612068965517
 r_32: + xp_2_1 <= 30
 r_33: + xp_11_1 + xp_2_3 <= 30
 r_34: + xp_19_4 + xp_18_5 + xp_2_2 <= 29.4574468085106
 r_35: 0 xp_0_0 <= 29.0077821011673
 r_36: + xp_9_0 <= 27.9004491017964
 r_37: + xp_21_4 + xp_13_1 + xp_8_1 + xp_6_3 + xp_0_3
 <= 28.4612068965517
 r_38: + xp_23_6 + xp_1_1 + xp_0_7 <= 30
 r_39: + xp_19_5 + xp_17_3 + xp_17_2 + xp_3_2 + xp_0_5 <= 30
 r_40: + xp_0_2 <= 26.9175824175824
 r_41: + xp_12_0 + xp_2_4 <= 28.4612068965517
 r_42: + xp_21_4 <= 28.4612068965517
 r_43: + xp_22_5 + xp_16_0 <= 28.4612068965517
 r_44: + xp_23_5 + xp_23_4 + xp_23_3 + xp_23_2 + xp_23_1 + xp_16_1
 + xp_1_2 <= 28.4612068965517
 r_45: + xp_17_8 + xp_17_6 + xp_17_5 + xp_17_4 + xp_3_3 + xp_3_1
 <= 28.4612068965517
 r_46: + xp_18_4 + xp_18_3 + xp_0_4 + xp_0_3 <= 26.9175824175824
 r_47: + xp_22_4 + xp_16_1 + xp_13_1 <= 30
 r_48: + xp_13_0 <= 28.4612068965517
 r_49: + xp_17_7 <= 30
 r_50: + xp_0_7 <= 26.9175824175824
 r_51: + xp_8_1 + xp_1_1 <= 30
 r_52: + xp_8_0 + xp_6_4 + xp_1_2 <= 28.4612068965517
 r_53: + xp_1_0 <= 30
 r_54: + xp_0_5 <= 26.9175824175824
 r_55: 0 xp_0_0 <= 30
 r_56: + xp_19_5 <= 29.4574468085106
 r_57: + xp_22_1 <= 26.9175824175824
 r_58: + xp_23_3 + xp_22_2 + xp_17_5 + xp_17_3 + xp_5_0
 <= 26.9175824175824
 r_59: + xp_23_6 + xp_22_0 + xp_17_2 + xp_6_3 <= 26.9175824175824
 r_60: + xp_23_1 + xp_22_5 + xp_17_4 + xp_6_0 <= 26.9175824175824
 r_61: + xp_23_0 + xp_22_4 + xp_17_7 <= 26.9175824175824
 r_62: + xp_17_0 + xp_6_4 <= 26.9175824175824
 r_63: + xp_23_2 + xp_22_3 + xp_17_8 + xp_17_6 + xp_17_1 + xp_11_3
 + xp_6_1 + xp_5_2 <= 26.9175824175824
 r_64: + xp_23_5 + xp_23_4 + xp_22_6 + xp_6_2 + xp_5_1
 <= 26.9175824175824
 r_65: + xp_21_3 + xp_20_1 + xp_19_2 + xp_14_1 + xp_10_1 + xp_7_1
 + xp_2_1 + xp_0_6 <= 27.9004491017964
 r_66: + xp_21_2 + xp_20_2 + xp_7_0 <= 30
 r_67: + xp_20_3 + xp_19_1 + xp_10_0 <= 29.4574468085106
 r_68: + xp_20_0 <= 29.0077821011673

Bounds
 0 <= xp_0_0 <= 28.2589359286202
 0 <= xp_0_1 <= 3.90303352937679
 0 <= xp_0_2 <= 12.7423524647957
 0 <= xp_0_3 <= 2.12372541079929
 0 <= xp_0_4 <= 2.77423099902875
 0 <= xp_0_5 <= 6.37117623239786
 0 <= xp_0_6 <= 5.37625335194661
 0 <= xp_0_7 <= 2.12372541079929
 0 <= xp_1_0 <= 20.7015231358646
 0 <= xp_1_1 <= 12.8252414675792
 0 <= xp_1_2 <= 2.12372541079929
 0 <= xp_2_0 <= 24.521688899712
 0 <= xp_2_1 <= 0.580354690459942
 0 <= xp_2_2 <= 2.70408010125923
 0 <= xp_2_3 <= 6.18620824401888
 0 <= xp_2_4 <= 1.16070938091988
 0 <= xp_3_0 <= 26.6517897341945
 0 <= xp_3_1 <= 4.06886675180446
 0 <= xp_3_2 <= 0.389028268201035
 0 <= xp_3_3 <= 1.1670848046031
 0 <= xp_3_4 <= 0.389028268201035
 0 <= xp_4_0 <= 26.5305972199019
 0 <= xp_5_0 <= 10.2040758538084
 0 <= xp_5_1 <= 8.16326068304673
 0 <= xp_5_2 <= 8.16326068304673
 0 <= xp_6_0 <= 16.5306028831696
 0 <= xp_6_1 <= 1.83673365368551
 0 <= xp_6_2 <= 1.83673365368551
 0 <= xp_6_3 <= 1.83673365368551
 0 <= xp_6_4 <= 1.83673365368551
 0 <= xp_7_0 <= 21.1224370173834
 0 <= xp_7_1 <= 1.76020308478195
 0 <= xp_8_0 <= 15.816317573403
 0 <= xp_8_1 <= 4.74489527202091
 0 <= xp_9_0 <= 19.0688667518045
 0 <= xp_10_0 <= 16.1351949438345
 0 <= xp_10_1 <= 2.93367180796992
 0 <= xp_11_0 <= 25.4847049295914
 0 <= xp_11_1 <= 12.7423524647957
 0 <= xp_11_2 <= 10.6186270539964
 0 <= xp_11_3 <= 6.37117623239786
 0 <= xp_12_0 <= 17.9081531234338
 0 <= xp_13_0 <= 13.3928495581235
 0 <= xp_13_1 <= 4.01785486743706
 0 <= xp_14_0 <= 11.4795853355345
 0 <= xp_14_1 <= 5.1020379269042
 0 <= xp_15_0 <= 16.4158070298143
 0 <= xp_16_0 <= 14.540808091677
 0 <= xp_16_1 <= 1.21173400763975
 0 <= xp_17_0 <= 26.2053614155904
 0 <= xp_17_1 <= 2.84438189679827
 0 <= xp_17_2 <= 4.96810730759756
 0 <= xp_17_3 <= 1.42219094839914
 0 <= xp_17_4 <= 4.26657284519741
 0 <= xp_17_5 <= 1.42219094839914
 0 <= xp_17_6 <= 1.42219094839914
 0 <= xp_17_7 <= 1.42219094839914
 0 <= xp_17_8 <= 2.12372541079929
 0 <= xp_18_0 <= 21.6262611389398
 0 <= xp_18_1 <= 13.1568866751804
 0 <= xp_18_2 <= 3.3928552213913
 0 <= xp_18_3 <= 1.26912981059201
 0 <= xp_18_4 <= 3.3928552213913
 0 <= xp_18_5 <= 1.26912981059201
 0 <= xp_19_0 <= 28.8392948665309
 0 <= xp_19_1 <= 4.92345810456091
 0 <= xp_19_2 <= 3.69259357842069
 0 <= xp_19_3 <= 2.46172905228046
 0 <= xp_19_4 <= 2.46172905228046
 0 <= xp_19_5 <= 1.23086452614023
 0 <= xp_20_0 <= 27.8188830336993
 0 <= xp_20_1 <= 5.83544526026963
 0 <= xp_20_2 <= 4.45790351490714
 0 <= xp_20_3 <= 4.6683562082157
 0 <= xp_21_0 <= 27.5382709477195
 0 <= xp_21_1 <= 3.08034902719218
 0 <= xp_21_2 <= 1.02678300906406
 0 <= xp_21_3 <= 1.02678300906406
 0 <= xp_21_4 <= 2.05356601812812
 0 <= xp_21_5 <= 6.23085744705553
 0 <= xp_22_0 <= 17.5637740582694
 0 <= xp_22_1 <= 1.79846412178291
 0 <= xp_22_2 <= 13.3163232366708
 0 <= xp_22_3 <= 0.899232060891455
 0 <= xp_22_4 <= 3.9221895325822
 0 <= xp_22_5 <= 0.899232060891455
 0 <= xp_22_6 <= 0.899232060891455
 0 <= xp_23_0 <= 21.8112248798679
 0 <= xp_23_1 <= 4.49616030445728
 0 <= xp_23_2 <= 0.899232060891455
 0 <= xp_23_3 <= 0.899232060891455
 0 <= xp_23_4 <= 6.04591494338148
 0 <= xp_23_5 <= 2.12372541079929
 0 <= xp_23_6 <= 3.02295747169074

End
